49 60
10 3 1
9 8 1
5 7 1
8 10 3
5 10 1
4 1 2
7 3 2
10 8 1
3 1 2
6 1 1
7 1 1
3 6 1
6 5 1
3 7 2
7 5 1
1 5 1
4 4 1
9 5 1
6 6 1
10 1 1
8 1 1
8 4 2
1 7 2
6 9 1
7 10 1
4 6 1
9 6 1
8 2 1
3 9 1
9 1 1
8 8 1
10 4 2
8 6 1
3 2 1
2 4 2
4 7 1
9 2 1
5 9 1
6 7 1
8 9 1
7 7 2
3 8 1
2 5 1
4 5 1
1 4 1
2 8 1
9 7 1
8 7 1
10 2 1
10 10 
10 10 
10 10 
10 10 
10 10 
10 10 
10 10 
10 10 
10 10 
10 10 
10 10 
10 10 
10 10 
10 10 
10 10 
10 10 
10 10 
10 10 
10 10 
10 10 
10 10 
10 10 
10 10 
10 10 
10 10 
10 10 
10 10 
10 10 
10 10 
10 10 
10 10 
10 10 
10 10 
10 10 
10 10 
10 10 
10 10 
10 10 
10 10 
10 10 
10 10 
10 10 
10 10 
10 10 
10 10 
10 10 
10 10 
10 10 
10 10 
10 10 
10 10 
10 10 
10 10 
10 10 
10 10 
10 10 
10 10 
10 10 
10 10 
10 10 
